Argumentos: 
./solver.release -i 22 -t 86400 -a 7 -h 86400 -w Testes/R2-i22 -m R2_modeloCom2345.mod -o R2_modeloCom2345.mod 
Seed: 1622927966
hidden-TXT/Sc-n110w4.txt
hidden-TXT/H0-n110w4-0.txt
hidden-TXT/WD-n110w4-1.txt hidden-TXT/WD-n110w4-9.txt hidden-TXT/WD-n110w4-3.txt hidden-TXT/WD-n110w4-5.txt 
Reading model section from R2_modeloCom2345.mod...
367 lines were read
Reading data section from Testes/R2-i22/22.dat...
19773 lines were read
Generating obj...
Generating H1turnoDia...
Generating H2coberturaMinima...
Generating H3AsucessaoTurnos...
Generating H3BsucessaoTurnos...
Generating H4qualificacao...
Generating S1coberturaOtima...
Generating S2d...
Generating S2dHist...
Generating S2b...
Generating S2bHist...
Generating auxS5...
Generating S6a...
Generating S6b...
Generating auxS7...
Generating S7...
Model has been successfully generated
Writing problem data to `Testes/R2-i22/22.lp'...
513679 lines were written
CPX0000  Tried aggregator 2 times.
CPX0000  MIP Presolve eliminated 21917 rows and 78946 columns.
CPX0000  MIP Presolve modified 5933 coefficients.
CPX0000  Aggregator did 12 substitutions.
CPX0000  Reduced MIP has 23420 rows, 33860 columns, and 297151 nonzeros.
CPX0000  Reduced MIP has 33240 binaries, 620 generals, 0 SOSs, and 0 indicators.
CPX0000  Presolve time = 0.54 sec. (329.66 ticks)
CPX0000  Found incumbent of value 145830.000000 after 1.49 sec. (1026.38 ticks)
[1m[30m[ZEN] [0m00:00:01 [1m[34m 145830.00[1m[32m  100.00%
[0mCPX0000  Probing time = 0.03 sec. (11.09 ticks)
CPX0000  Tried aggregator 1 time.
CPX0000  Reduced MIP has 23420 rows, 33860 columns, and 297151 nonzeros.
CPX0000  Reduced MIP has 33240 binaries, 620 generals, 0 SOSs, and 0 indicators.
CPX0000  Presolve time = 0.15 sec. (109.15 ticks)
CPX0000  Probing time = 0.03 sec. (10.48 ticks)
CPX0000  Clique table members: 14930.
CPX0000  MIP emphasis: balance optimality and feasibility.
CPX0000  MIP search method: dynamic search.
CPX0000  Parallel mode: none, using 1 thread.
CPX0000  Root relaxation solution time = 2.97 sec. (1634.93 ticks)
CPX0000
CPX0000          Nodes                                         Cuts/
CPX0000     Node  Left     Objective  IInf  Best Integer    Best Bound    ItCnt     Gap
CPX0000
CPX0000  *     0+    0                       145830.0000        0.0000     8500  100.00%
CPX0000        0     0      665.0000  1141   145830.0000      665.0000     8500   99.54%
CPX0000        0     0      728.3333  1354   145830.0000    Cuts: 1290    12862   99.50%
CPX0000        0     0      847.2468  1668   145830.0000     Cuts: 699    17911   99.42%
CPX0000        0     0      862.6667  1712   145830.0000     Cuts: 584    21370   99.41%
CPX0000  *     0+    0                         1320.0000      862.6667    21370   34.65%
CPX0000  *     0+    0                         1300.0000      862.6667    21370   33.64%
[1m[30m[ZEN] [0m00:00:23 [1m[34m   1300.00[1m[32m   33.64%
[0mCPX0000        0     0      865.1667  1660     1300.0000     Cuts: 399    24152   33.45%
CPX0000        0     0      871.0000  1703     1300.0000     Cuts: 412    27530   33.00%
CPX0000        0     0      881.8333  1350     1300.0000     Cuts: 359    31734   32.17%
CPX0000        0     0      881.8333  1554     1300.0000     Cuts: 290    35016   32.17%
CPX0000        0     0      894.3333  1196     1300.0000     Cuts: 110    36724   31.21%
CPX0000        0     0      911.8333  1499     1300.0000     Cuts: 243    38589   29.86%
CPX0000        0     0      931.0000  1432     1300.0000     Cuts: 235    41201   28.38%
CPX0000        0     0      940.1667  1393     1300.0000     Cuts: 231    43798   27.68%
CPX0000        0     0      940.1667  1444     1300.0000     Cuts: 204    45903   27.68%
CPX0000  *     0+    0                         1140.0000      940.1667    45903   17.53%
CPX0000  *     0+    0                         1120.0000      940.1667    45903   16.06%
CPX0000  *     0+    0                         1060.0000      940.1667    45903   11.31%
[1m[30m[ZEN] [0m00:01:00 [1m[34m   1060.00[1m[32m   11.31%
[0mCPX0000        0     2      940.1667  1444     1060.0000      940.1667    45903   11.31%
CPX0000  Elapsed time = 60.74 sec. (35803.43 ticks, tree = 0.00 MB
CPX0000        2     4      945.1667  1417     1060.0000      947.6667    46439   10.60%
CPX0000        7     9      955.1667  1350     1060.0000      950.1667    47176   10.36%
CPX0000       10    12      960.1667  1305     1060.0000      950.1667    48049   10.36%
CPX0000       16    18      960.1667  1275     1060.0000      950.1667    49027   10.36%
CPX0000       20    22      980.1667  1207     1060.0000      950.1667    50031   10.36%
CPX0000       23    25      965.1667  1167     1060.0000      950.1667    51350   10.36%
CPX0000       26    28      965.1667  1158     1060.0000      950.1667    52021   10.36%
CPX0000       37    39      977.6667  1027     1060.0000      950.1667    53041   10.36%
CPX0000       42    44      992.6667   851     1060.0000      950.1667    65027   10.36%
CPX0000       43    45      992.6667   802     1060.0000      950.1667    67382   10.36%
CPX0000  Elapsed time = 80.90 sec. (47359.58 ticks, tree = 2.28 MB
CPX0000       70    72      997.6667   775     1060.0000      950.1667    70368   10.36%
CPX0000       71    73      997.6667   892     1060.0000      950.1667    73696   10.36%
CPX0000       72    74     1007.6667   826     1060.0000      950.1667    76993   10.36%
CPX0000       73    75      997.6667   837     1060.0000      950.1667    81092   10.36%
CPX0000       74    76      997.6667   891     1060.0000      950.1667    85655   10.36%
CPX0000       75    77      997.6667   757     1060.0000      950.1667    89264   10.36%
CPX0000       76    78      997.6667   773     1060.0000      950.1667    91592   10.36%
CPX0000       77    79     1007.6667   817     1060.0000      950.1667    94812   10.36%
CPX0000       78    80      997.6667   786     1060.0000      950.1667    96793   10.36%
CPX0000       82    84      999.3333   868     1060.0000      950.1667    98124   10.36%
CPX0000  Elapsed time = 107.53 sec. (65714.18 ticks, tree = 3.63 MB
CPX0000       85    87     1007.6667   781     1060.0000      950.1667    99843   10.36%
CPX0000       87    89     1017.6667   731     1060.0000      950.1667   103239   10.36%
CPX0000       89    91     1017.6667   735     1060.0000      950.1667   109285   10.36%
CPX0000       90    92     1024.3333   597     1060.0000      950.1667   113107   10.36%
CPX0000       91    93     1026.3333   643     1060.0000      950.1667   116523   10.36%
CPX0000       92    94     1027.6667   625     1060.0000      950.1667   118510   10.36%
CPX0000       97    99     1041.0000   536     1060.0000      950.1667   119755   10.36%
CPX0000      107   103      950.1667  1389     1060.0000      950.1667   121434   10.36%
CPX0000      131   127      965.1667  1172     1060.0000      950.1667   123053   10.36%
CPX0000      144   140      990.1667  1113     1060.0000      950.1667   123934   10.36%
CPX0000  Elapsed time = 127.02 sec. (79753.65 ticks, tree = 20.17 MB
CPX0000      173   169      992.6667   878     1060.0000      950.1667   126374   10.36%
CPX0000      185   181     1014.3333   827     1060.0000      950.1667   127890   10.36%
CPX0000      205   201     1017.6667   798     1060.0000      950.1667   128840   10.36%
CPX0000      232   226     1041.0000   421     1060.0000      950.1667   130444   10.36%
CPX0000      269   258      950.1667  1410     1060.0000      950.1667   132362   10.36%
CPX0000      300   289      965.1667  1199     1060.0000      950.1667   133474   10.36%
CPX0000      320   309      982.6667  1081     1060.0000      950.1667   134302   10.36%
CPX0000      340   329      987.6667  1014     1060.0000      950.1667   136374   10.36%
CPX0000      384   373     1021.0000   777     1060.0000      950.1667   137858   10.36%
CPX0000      402   391      950.1667  1421     1060.0000      952.6667   139433   10.13%
CPX0000  Elapsed time = 144.95 sec. (92282.88 ticks, tree = 97.28 MB
CPX0000      452   441      977.6667  1132     1060.0000      952.6667   141314   10.13%
CPX0000      468   457     1004.3333   813     1060.0000      952.6667   142844   10.13%
CPX0000      498   487     1036.6667   390     1060.0000      952.6667   144982   10.13%
CPX0000  *   504+  328                         1040.0000     1030.0000   164231    0.96%
CPX0000  *   504+    0                         1030.0000     1030.0000   164231    0.00%
CPX0000  *   504     0      integral     0     1030.0000     1030.0000   164231    0.00%
CPX0000
CPX0000  GUB cover cuts applied:  616
CPX0000  Clique cuts applied:  784
CPX0000  Cover cuts applied:  43
CPX0000  Mixed integer rounding cuts applied:  152
CPX0000  Zero-half cuts applied:  491
CPX0000  Lift and project cuts applied:  15
CPX0000  Gomory fractional cuts applied:  67
CPX0000
CPX0000  Root node processing (before b&c):
CPX0000    Real time             =   60.67 sec. (35746.83 ticks)
CPX0000  Sequential b&c:
CPX0000    Real time             =  106.51 sec. (73920.93 ticks)
CPX0000                            ------------
CPX0000  Total (root+branch&cut) =  167.18 sec. (109667.76 ticks)
[1m[30m[ZEN] [0m00:02:47 [1m[34m   1030.00[1m[32m    0.00%
[0mH2 understaffing: 0
H3 shiftTypeSuccessions: 0
S1 optimalCoverage: 30
S2a consecutiveShift: 18570 = (1238,0 )
S2b consecutiveWorkingDays: 25230 = ( 841,0 )
S3 consecutiveDaysOff: 16590 = ( 553,0 )
S4 preferences: 210
S5 completeWeekend: 0
S6 totalAssignments: 760
S7 totalWorkingWeekeends: 30
 

Cost Solution: 61420

       |M|T|W|T|F|S|S| |M|T|W|T|F|S|S| |M|T|W|T|F|S|S| |M|T|W|T|F|S|S|
------------------------------------------------------------------------
HN_0   |L|L|N|-|D|-|-| |E|L|-|-|L|-|-| |E|-|N|N|N|-|-| |-|E|D|-|-|E|D|
HN_1   |L|N|-|-|-|-|-| |D|-|D|D|-|-|-| |-|-|-|-|N|-|-| |-|-|E|-|-|-|-|
HN_2   |-|-|-|-|L|-|-| |-|-|-|L|-|-|-| |-|-|L|-|D|-|D| |-|-|E|L|-|-|-|
HN_3   |D|D|E|D|D|-|-| |D|E|N|N|N|-|-| |D|E|D|D|-|N|N| |N|N|-|E|E|E|N|
HN_4   |-|E|D|L|N|-|-| |-|-|-|L|-|-|-| |-|-|E|L|-|N|N| |-|-|N|-|E|-|-|
HN_5   |-|-|-|D|-|-|-| |-|-|-|E|D|D|D| |D|-|L|-|N|-|-| |D|D|L|-|D|-|-|
HN_6   |D|E|E|-|-|E|D| |E|L|L|-|-|-|-| |N|-|-|E|E|L|L| |-|-|-|L|L|-|-|
HN_7   |D|-|L|-|L|-|-| |-|N|-|E|-|D|D| |L|-|E|L|L|-|-| |-|-|D|E|-|D|E|
HN_8   |N|-|D|L|L|N|N| |N|N|-|-|N|-|-| |L|-|-|-|-|D|E| |E|E|-|N|N|-|-|
HN_9   |-|E|-|-|D|E|D| |N|-|N|-|N|-|-| |N|-|L|-|-|-|-| |-|D|L|-|-|-|-|
HN_10  |N|N|-|-|E|-|-| |L|-|L|L|L|-|-| |-|E|D|E|D|E|L| |L|-|-|N|-|-|-|
HN_11  |-|L|L|-|-|-|-| |-|-|L|-|D|-|-| |-|-|-|L|-|-|-| |-|E|-|-|-|-|-|
HN_12  |-|-|D|N|-|-|-| |D|E|-|L|L|-|-| |-|-|N|-|E|-|-| |-|D|E|-|E|-|-|
HN_13  |-|-|-|D|-|D|E| |-|L|-|D|E|-|-| |E|D|D|N|-|-|-| |D|D|L|N|-|N|N|
HN_14  |-|N|-|L|N|-|-| |L|-|E|-|-|-|-| |E|-|-|-|-|-|-| |-|L|N|-|D|N|N|
HN_15  |D|D|L|-|-|N|N| |-|E|L|-|E|D|D| |-|D|-|D|D|-|-| |-|E|-|D|-|-|-|
HN_16  |D|E|N|N|N|-|-| |D|E|D|L|L|-|-| |D|N|-|D|D|E|D| |E|-|E|E|D|L|L|
HN_17  |-|D|-|E|E|-|-| |L|L|-|-|-|-|-| |-|L|L|L|-|D|E| |-|E|-|-|-|-|-|
HN_18  |-|E|N|N|-|E|D| |N|N|N|-|L|N|N| |-|D|D|E|N|-|-| |L|N|N|N|N|-|-|
HN_19  |N|N|N|-|-|L|L| |L|N|-|N|-|N|N| |N|-|E|-|-|-|-| |N|-|-|D|L|-|-|
NU_20  |E|D|L|-|N|-|-| |E|-|-|-|-|-|-| |L|L|-|D|-|-|-| |-|D|-|L|N|-|-|
NU_21  |E|E|E|E|N|-|-| |E|D|D|D|D|-|-| |L|L|N|N|-|D|E| |E|L|L|-|E|D|E|
NU_22  |N|N|-|D|N|N|N| |-|E|D|E|D|-|-| |D|E|E|N|N|-|-| |L|L|N|N|-|E|E|
NU_23  |-|D|E|-|-|-|-| |-|-|E|D|-|L|L| |L|-|N|-|N|-|-| |D|-|-|L|-|-|-|
NU_24  |-|L|-|-|L|-|-| |L|L|N|N|-|-|-| |-|D|E|-|N|-|-| |N|-|-|D|-|-|-|
NU_25  |-|-|-|-|E|-|-| |-|-|N|N|-|E|D| |-|E|L|-|D|-|-| |E|D|D|-|-|-|-|
NU_26  |-|-|L|-|-|-|-| |N|N|-|L|-|-|-| |-|L|-|-|-|-|-| |L|-|-|D|-|-|-|
NU_27  |-|-|-|L|-|-|-| |N|-|-|-|L|-|-| |-|-|N|-|D|-|-| |-|-|E|-|-|-|E|
NU_28  |D|D|-|-|E|L|L| |L|-|D|-|N|-|-| |E|E|N|-|-|-|-| |-|-|D|-|N|-|-|
NU_29  |-|-|-|D|D|L|L| |-|L|-|E|N|-|-| |D|L|N|-|D|-|-| |D|D|N|N|-|-|-|
NU_30  |-|L|-|-|E|E|E| |N|-|-|-|N|-|-| |N|N|-|-|L|-|-| |-|N|-|-|L|-|-|
NU_31  |L|-|D|-|-|-|-| |-|D|-|D|E|E|L| |-|-|-|-|L|-|-| |N|N|-|-|L|-|-|
NU_32  |-|D|D|E|D|-|-| |D|D|E|D|D|-|-| |E|L|L|N|-|D|E| |D|-|D|E|E|D|D|
NU_33  |E|E|D|N|N|-|-| |L|L|L|L|N|-|-| |D|D|D|N|-|L|L| |N|N|-|L|L|L|L|
NU_34  |-|-|L|L|-|-|-| |-|-|-|-|L|L|-| |-|-|L|-|-|-|-| |-|-|D|-|-|-|-|
NU_35  |N|-|-|-|E|D|D| |E|L|N|-|L|L|L| |-|D|D|-|D|-|-| |-|L|-|-|L|-|-|
NU_36  |N|N|-|N|-|D|E| |E|D|-|-|L|-|-| |L|-|-|E|-|-|-| |-|L|-|E|-|-|-|
NU_37  |-|-|E|-|-|-|-| |L|-|-|-|-|E|E| |N|N|N|-|E|-|-| |D|L|-|D|-|-|-|
NU_38  |L|L|-|D|D|E|D| |N|-|D|E|D|-|-| |E|D|D|D|E|-|-| |E|D|-|D|E|D|D|
NU_39  |L|L|N|-|L|-|-| |D|N|-|D|D|-|-| |E|-|N|-|D|-|-| |E|N|-|L|L|-|-|
CT_40  |-|-|D|-|-|-|-| |-|-|L|-|-|N|-| |-|E|-|-|-|-|-| |-|N|-|-|-|-|-|
CT_41  |-|-|-|E|-|-|-| |-|-|-|-|L|-|-| |N|-|D|-|-|-|-| |-|-|E|-|-|-|-|
CT_42  |N|-|E|L|L|N|N| |-|D|E|D|E|-|-| |L|L|L|L|L|-|-| |L|L|-|E|D|L|L|
CT_43  |-|-|-|E|-|-|-| |E|-|-|E|-|-|-| |-|-|-|-|E|-|-| |-|-|L|-|-|-|-|
CT_44  |D|-|E|L|-|-|-| |D|L|-|-|D|L|L| |N|-|L|-|-|-|-| |-|-|-|L|-|-|-|
CT_45  |-|D|E|N|N|-|-| |-|-|D|-|D|-|-| |E|N|N|-|D|N|N| |-|E|E|N|-|-|-|
CT_46  |E|-|D|-|L|-|-| |L|-|-|-|-|E|D| |L|-|E|L|-|-|-| |-|D|-|-|E|-|-|
CT_47  |L|L|L|N|N|-|-| |E|L|N|N|N|-|-| |L|L|L|-|D|L|L| |L|L|-|N|N|N|N|
CT_48  |-|D|D|D|-|-|-| |-|-|E|L|-|-|-| |-|N|-|-|-|-|-| |-|-|L|L|L|L|L|
CT_49  |D|E|D|D|N|-|-| |D|L|L|N|N|-|-| |D|E|D|D|-|E|E| |D|L|-|E|L|N|N|
CT_50  |E|L|L|-|-|L|L| |N|N|N|-|E|-|-| |E|-|-|-|L|-|-| |L|L|-|N|-|E|D|
CT_51  |-|L|-|-|L|-|-| |N|-|E|D|E|-|-| |-|L|-|-|-|-|-| |D|N|-|D|E|-|-|
CT_52  |E|L|-|L|-|-|-| |L|-|E|D|E|D|E| |-|L|-|-|E|-|-| |D|D|L|N|-|-|-|
CT_53  |D|N|-|-|D|-|-| |D|D|E|D|E|-|-| |-|-|-|-|-|E|E| |D|D|L|-|E|-|-|
CT_54  |E|D|D|D|E|-|-| |D|E|E|D|D|-|-| |E|E|E|D|-|D|L| |-|D|E|E|-|E|D|
CT_55  |E|-|-|-|-|-|-| |D|-|-|D|-|L|-| |-|E|-|-|-|-|-| |-|-|E|-|-|-|-|
CT_56  |-|-|-|D|-|-|-| |-|N|-|-|N|N|-| |-|-|-|-|D|-|-| |D|E|-|E|-|-|-|
CT_57  |-|N|-|D|-|-|-| |-|L|-|N|-|D|E| |-|-|E|-|N|-|-| |D|D|D|-|L|-|-|
CT_58  |-|-|-|L|-|D|-| |-|-|E|-|-|-|-| |-|-|E|-|-|-|-| |-|E|N|-|-|-|-|
CT_59  |L|N|-|D|D|D|E| |D|N|-|-|L|-|-| |-|E|-|-|L|L|L| |N|-|L|L|N|-|-|
CT_60  |-|-|E|D|D|-|-| |-|E|-|-|D|-|-| |-|-|E|-|-|E|D| |E|-|N|-|N|-|-|
CT_61  |L|-|-|D|-|-|-| |-|-|-|-|L|N|-| |-|-|-|-|N|-|-| |-|N|N|-|-|-|-|
CT_62  |L|L|-|E|E|N|N| |N|-|L|L|L|N|N| |-|D|D|E|N|-|-| |D|D|D|D|D|-|-|
CT_63  |E|D|-|-|D|-|-| |-|-|L|N|-|D|D| |L|L|L|N|N|-|-| |N|N|-|-|D|-|-|
CT_64  |-|D|-|L|L|-|-| |-|N|-|-|-|-|-| |D|E|L|-|E|-|-| |-|E|L|-|N|-|-|
CT_65  |D|E|L|L|N|-|-| |D|D|D|E|N|-|-| |N|N|-|E|E|N|N| |N|-|L|N|N|N|N|
CT_66  |-|L|-|-|-|D|E| |L|N|-|E|E|-|-| |E|D|D|L|-|L|L| |-|L|N|-|-|-|-|
CT_67  |L|-|D|-|-|N|N| |-|-|L|-|-|-|-| |D|D|-|-|-|-|-| |E|-|D|-|-|-|-|
CT_68  |-|N|N|N|-|L|L| |N|-|-|L|-|-|-| |D|N|-|L|-|-|-| |-|-|N|-|-|-|-|
CT_69  |-|-|N|N|-|-|-| |L|-|-|-|L|-|-| |D|-|D|E|L|-|-| |L|-|N|-|D|-|-|
CT_70  |D|N|N|-|L|-|-| |-|-|L|-|D|N|N| |N|-|E|E|E|-|-| |L|N|-|-|D|-|-|
CT_71  |L|-|-|-|D|-|-| |-|-|-|E|-|-|-| |-|N|-|E|-|-|-| |-|-|-|-|L|-|-|
CT_72  |-|E|-|-|-|-|N| |N|-|-|-|-|-|-| |N|-|-|-|E|-|-| |-|-|-|-|D|-|-|
CT_73  |-|-|L|-|-|-|-| |-|-|-|N|-|-|-| |-|-|-|-|N|-|-| |-|-|N|N|-|-|-|
CT_74  |E|-|N|-|E|-|-| |-|-|-|-|E|-|-| |-|-|-|D|-|-|-| |-|-|D|-|-|-|-|
CT_75  |N|N|N|N|-|E|D| |-|L|-|-|D|-|-| |L|-|E|N|-|-|-| |-|E|E|-|-|D|E|
CT_76  |N|-|E|E|D|-|-| |E|E|D|E|E|-|-| |N|N|N|N|-|D|D| |E|E|-|D|N|N|N|
CT_77  |D|N|N|N|N|-|-| |E|D|L|L|N|-|-| |N|N|N|N|-|D|D| |N|-|L|L|L|L|L|
CT_78  |D|-|E|E|E|-|-| |E|E|E|N|-|E|E| |D|D|-|L|N|N|N| |N|-|E|D|E|E|D|
CT_79  |-|-|-|-|L|-|-| |-|D|-|-|N|-|-| |-|-|-|-|D|-|-| |E|-|-|N|-|-|-|
TR_80  |N|-|-|N|-|-|-| |L|L|L|L|-|E|E| |L|-|L|-|-|-|-| |D|L|L|L|N|-|-|
TR_81  |-|E|N|-|-|D|L| |L|N|-|E|-|-|-| |N|-|N|-|D|-|-| |-|-|-|-|L|-|-|
TR_82  |-|L|-|-|L|-|-| |D|D|N|-|-|-|-| |N|-|D|N|-|-|-| |-|D|L|-|E|-|-|
TR_83  |N|N|-|E|L|-|-| |-|D|-|-|E|D|D| |N|N|N|-|E|-|-| |E|-|-|E|D|-|-|
TR_84  |-|L|-|-|E|N|N| |-|L|L|-|D|N|N| |-|D|-|D|E|-|-| |-|E|E|-|E|-|-|
TR_85  |L|-|-|-|-|N|-| |L|-|-|-|-|-|-| |-|L|-|-|-|-|-| |-|-|D|-|-|-|-|
TR_86  |-|L|N|-|L|-|-| |-|L|-|-|D|-|-| |-|D|-|E|-|-|-| |-|D|E|D|L|-|-|
TR_87  |L|-|E|E|D|-|-| |-|-|D|L|N|-|-| |E|E|-|D|E|-|-| |-|E|E|D|E|-|-|
TR_88  |E|E|L|L|-|-|-| |N|-|E|L|L|-|-| |L|N|N|-|N|-|-| |L|-|D|E|-|-|-|
TR_89  |-|E|E|D|L|-|-| |D|D|E|D|D|-|-| |L|L|L|L|-|N|N| |N|N|N|-|L|L|L|
TR_90  |D|N|-|N|-|-|-| |N|-|L|-|-|-|-| |-|-|D|L|-|-|-| |E|D|-|E|E|-|-|
TR_91  |E|D|L|L|N|-|-| |E|E|N|N|N|-|-| |D|E|E|E|-|D|E| |N|N|-|D|E|E|E|
TR_92  |-|-|D|-|-|-|-| |-|E|-|-|-|N|-| |E|-|-|-|-|-|-| |-|E|-|-|-|-|-|
TR_93  |D|-|D|-|-|-|-| |D|E|D|-|N|-|-| |E|N|N|-|D|-|-| |-|D|-|-|-|-|-|
TR_94  |D|-|N|-|-|-|-| |L|-|N|-|L|-|-| |-|N|-|N|-|-|-| |D|D|N|-|D|-|-|
TR_95  |-|N|-|-|-|-|-| |-|N|-|-|E|-|-| |-|-|-|-|-|N|-| |-|-|-|N|-|-|-|
TR_96  |N|-|D|-|E|E|D| |E|-|-|L|L|-|-| |-|D|E|N|-|E|E| |L|-|-|L|-|-|-|
TR_97  |E|N|-|E|E|D|D| |E|-|D|D|E|-|-| |E|E|E|D|N|-|-| |D|-|D|E|L|L|L|
TR_98  |-|-|E|D|D|-|-| |N|-|E|E|-|D|E| |-|E|-|L|L|-|-| |D|E|D|-|D|-|-|
TR_99  |N|-|-|N|-|L|L| |N|-|N|-|-|L|L| |L|-|D|E|E|-|-| |-|L|-|L|L|-|-|
TR_100 |L|-|E|N|N|-|-| |E|D|D|D|L|-|-| |D|E|D|-|L|L|L| |L|N|-|N|N|N|N|
TR_101 |E|D|E|D|D|-|-| |D|D|D|E|E|-|-| |D|D|-|D|D|D|L| |N|-|E|N|N|N|N|
TR_102 |-|-|-|-|E|-|-| |N|-|-|-|-|-|-| |-|E|-|-|-|-|D| |-|N|-|-|-|-|-|
TR_103 |N|-|N|-|N|-|-| |-|L|-|D|-|-|-| |-|-|L|L|L|-|-| |-|L|N|-|N|-|-|
TR_104 |L|-|D|E|D|E|E| |-|E|E|N|N|-|-| |E|L|L|L|N|-|-| |L|L|L|L|-|D|E|
TR_105 |D|-|N|-|-|E|E| |L|-|E|N|-|-|-| |N|-|D|D|L|-|-| |E|N|-|E|D|-|-|
TR_106 |E|D|E|E|D|-|-| |D|L|N|N|N|-|-| |D|L|L|N|-|E|E| |N|-|D|D|D|D|D|
TR_107 |D|N|-|L|N|-|-| |E|N|-|-|D|E|D| |L|N|-|N|-|-|-| |N|-|-|-|-|E|D|
TR_108 |L|-|-|-|-|-|E| |-|-|-|-|D|-|-| |-|-|-|-|L|-|-| |-|-|-|-|N|-|-|
TR_109 |-|E|D|-|E|-|-| |-|N|-|L|-|L|L| |-|E|E|E|D|-|-| |E|N|N|-|E|-|-|


Hard constraint violations
--------------------------

Minimal coverage constraints: 0
Required skill constraints: 0
Illegal shift type succession constraints: 0
Single assignment per day: 0


Cost per constraint type
------------------------

Total assignment constraints: 760
Consecutive constraints: 43800
Non working days constraints: 16590
Preferences: 210
Max working weekend: 30
Complete weekends: 0
Optimal coverage constraints: 30

------------------------

Total cost: 61420
